c description: Perfect Matching Principle on 
c generator: CNFgen (0.9.0)
c copyright: (C) 2012-2020 Massimo Lauria <massimo.lauria@uniroma1.it>
c url: https://massimolauria.net/cnfgen
c
p cnf 60 302
-1 -2 0
1 2 0
-3 -4 0
-3 -5 0
-3 -6 0
-4 -5 0
-4 -6 0
-5 -6 0
3 4 5 6 0
-7 -8 0
-7 -9 0
-7 -10 0
-8 -9 0
-8 -10 0
-9 -10 0
7 8 9 10 0
-11 -12 0
11 12 0
-7 -13 0
-7 -14 0
-7 -15 0
-7 -16 0
-7 -17 0
-13 -14 0
-13 -15 0
-13 -16 0
-13 -17 0
-14 -15 0
-14 -16 0
-14 -17 0
-15 -16 0
-15 -17 0
-16 -17 0
7 13 14 15 16 17 0
-18 -19 0
18 19 0
-20 -21 0
-20 -22 0
-20 -23 0
-21 -22 0
-21 -23 0
-22 -23 0
20 21 22 23 0
-18 -24 0
18 24 0
-25 -26 0
-25 -27 0
-25 -28 0
-26 -27 0
-26 -28 0
-27 -28 0
25 26 27 28 0
29 0
-20 -30 0
-20 -31 0
-30 -31 0
20 30 31 0
-3 -13 0
-3 -32 0
-3 -33 0
-3 -34 0
-3 -35 0
-3 -36 0
-3 -37 0
-3 -38 0
-13 -32 0
-13 -33 0
-13 -34 0
-13 -35 0
-13 -36 0
-13 -37 0
-13 -38 0
-32 -33 0
-32 -34 0
-32 -35 0
-32 -36 0
-32 -37 0
-32 -38 0
-33 -34 0
-33 -35 0
-33 -36 0
-33 -37 0
-33 -38 0
-34 -35 0
-34 -36 0
-34 -37 0
-34 -38 0
-35 -36 0
-35 -37 0
-35 -38 0
-36 -37 0
-36 -38 0
-37 -38 0
3 13 32 33 34 35 36 37 38 0
-39 -40 0
-39 -41 0
-40 -41 0
39 40 41 0
-4 -8 0
-4 -24 0
-4 -32 0
-8 -24 0
-8 -32 0
-24 -32 0
4 8 24 32 0
-33 -39 0
-33 -42 0
-33 -43 0
-39 -42 0
-39 -43 0
-42 -43 0
33 39 42 43 0
-1 -9 0
-1 -44 0
-1 -45 0
-1 -46 0
-1 -47 0
-9 -44 0
-9 -45 0
-9 -46 0
-9 -47 0
-44 -45 0
-44 -46 0
-44 -47 0
-45 -46 0
-45 -47 0
-46 -47 0
1 9 44 45 46 47 0
-2 -48 0
2 48 0
-14 -25 0
-14 -44 0
-14 -49 0
-25 -44 0
-25 -49 0
-44 -49 0
14 25 44 49 0
-50 -51 0
50 51 0
-11 -15 0
-11 -29 0
-15 -29 0
11 15 29 0
-12 -21 0
-12 -26 0
-12 -30 0
-12 -34 0
-12 -49 0
-12 -50 0
-12 -52 0
-12 -53 0
-12 -54 0
-12 -55 0
-21 -26 0
-21 -30 0
-21 -34 0
-21 -49 0
-21 -50 0
-21 -52 0
-21 -53 0
-21 -54 0
-21 -55 0
-26 -30 0
-26 -34 0
-26 -49 0
-26 -50 0
-26 -52 0
-26 -53 0
-26 -54 0
-26 -55 0
-30 -34 0
-30 -49 0
-30 -50 0
-30 -52 0
-30 -53 0
-30 -54 0
-30 -55 0
-34 -49 0
-34 -50 0
-34 -52 0
-34 -53 0
-34 -54 0
-34 -55 0
-49 -50 0
-49 -52 0
-49 -53 0
-49 -54 0
-49 -55 0
-50 -52 0
-50 -53 0
-50 -54 0
-50 -55 0
-52 -53 0
-52 -54 0
-52 -55 0
-53 -54 0
-53 -55 0
-54 -55 0
12 21 26 30 34 49 50 52 53 54 55 0
-5 -56 0
5 56 0
-10 -16 0
-10 -31 0
-10 -35 0
-10 -40 0
-10 -42 0
-10 -45 0
-10 -48 0
-10 -52 0
-10 -57 0
-16 -31 0
-16 -35 0
-16 -40 0
-16 -42 0
-16 -45 0
-16 -48 0
-16 -52 0
-16 -57 0
-31 -35 0
-31 -40 0
-31 -42 0
-31 -45 0
-31 -48 0
-31 -52 0
-31 -57 0
-35 -40 0
-35 -42 0
-35 -45 0
-35 -48 0
-35 -52 0
-35 -57 0
-40 -42 0
-40 -45 0
-40 -48 0
-40 -52 0
-40 -57 0
-42 -45 0
-42 -48 0
-42 -52 0
-42 -57 0
-45 -48 0
-45 -52 0
-45 -57 0
-48 -52 0
-48 -57 0
-52 -57 0
10 16 31 35 40 42 45 48 52 57 0
-36 -41 0
-36 -43 0
-36 -53 0
-36 -58 0
-41 -43 0
-41 -53 0
-41 -58 0
-43 -53 0
-43 -58 0
-53 -58 0
36 41 43 53 58 0
0
-54 -59 0
54 59 0
-46 -51 0
-46 -55 0
-46 -56 0
-46 -60 0
-51 -55 0
-51 -56 0
-51 -60 0
-55 -56 0
-55 -60 0
-56 -60 0
46 51 55 56 60 0
-6 -17 0
-6 -27 0
-6 -37 0
-17 -27 0
-17 -37 0
-27 -37 0
6 17 27 37 0
-19 -22 0
-19 -28 0
-19 -47 0
-19 -59 0
-19 -60 0
-22 -28 0
-22 -47 0
-22 -59 0
-22 -60 0
-28 -47 0
-28 -59 0
-28 -60 0
-47 -59 0
-47 -60 0
-59 -60 0
19 22 28 47 59 60 0
-23 -38 0
-23 -57 0
-23 -58 0
-38 -57 0
-38 -58 0
-57 -58 0
23 38 57 58 0